140 47 1 143 29 99 118 50 191 18 195 36 34 61 117 4 123 52 59 43 154 3 92 122 121 70 187 38 72 14 171 136 83 40 146 78 180 12 178 87 164 23 26 179 119 137 51 7 65 37 185 148 33 80 129 174 0 155 199 125 49 168 161 93 31 104 96 166 97 169 48 152 69 138 139 16 89 88 10 167 109 22 120 189 100 194 41 172 184 21 192 110 102 57 127 28 190 196 175 198 107 128 35 158 74 66 131 6 197 73 111 60 170 126 75 160 134 71 56 30 98 77 193 79 156 133 108 124 145 45 68 106 183 157 151 15 62 153 53 90 76 42 63 149 58 2 176 115 82 39 5 17 84 142 188 95 85 159 64 173 44 165 32 67 13 186 103 105 182 81 163 113 24 19 141 101 8 9 181 20 46 132 114 11 27 150 55 94 147 130 162 25 86 112 54 177 91 116 144 135